0,8,29,46,76,51,65,36,63,16,47
8,0,37,45,67,44,57,43,62,14,55
29,37,0,44,99,80,87,43,84,32,44
46,45,44,0,74,85,61,80,108,31,86
76,67,99,74,0,59,13,107,101,67,121
51,44,80,85,59,0,58,62,42,57,78
65,57,87,61,13,58,0,98,98,55,112
36,43,43,80,107,62,98,0,46,52,16
63,62,84,108,101,42,98,46,0,76,59
16,14,32,31,67,57,55,52,76,0,62
47,55,44,86,121,78,112,16,59,62,0